Traveling Salesman Problem/TSP_generados/Aleatorio1620392159_16.tsp
NAME: Aleatorio1620392159_16.tsp
COMMENT: Randomly generated scenario
TYPE: TSP
DIMENSION: 16
EDGE_WEIGHT_TYPE: ATT
NODE_COORD_SECTION
1 18.4 24.01
2 21.63 9.75
3 46.5 18.98
4 4.21 4.17
5 25.0 0.59
6 17.66 29.33
7 32.36 10.79
8 47.73 24.35
9 45.86 5.12
10 15.08 46.47
11 30.78 13.01
12 5.06 30.07
13 5.53 37.54
14 1.15 27.13
15 45.05 44.9
16 21.52 28.78
