Traveling Salesman Problem/TSP_generados/Aleatorio1620392159_16.opt.tour
NAME: Aleatorio1620392159_16.opt.tour
COMMENT: Optimal solution for Aleatorio1620392159_16 (203.58543451088818)
TYPE: TOUR
DIMENSION: 16
TOUR_SECTION
1 16 15 8 3 9 7 11 2 5 4 14 12 13 10 6
-1
EOF
